10
0 3 96 78 77 43 15 37 32 69 
3 0 1 54 15 55 1 11 9 32 
96 1 0 47 9 24 45 90 39 43 
78 54 47 0 59 74 20 47 62 39 
77 15 9 59 0 51 87 89 70 57 
43 55 24 74 51 0 92 57 44 81 
15 1 45 20 87 92 0 88 10 16 
37 11 90 47 89 57 88 0 56 89 
32 9 39 62 70 44 10 56 0 10 
69 32 43 39 57 81 16 89 10 0 
BBBRRBBRRR
